182,304
37,188
126,84
438,314
575,225
378,47
34,193
299,217
292,101
193,342
279,380
571,269
177,61
125,5
543,226
216,41
511,207
30,91
31,396
240,347
575,0
268,80
376,92
43,314
40,64
380,4
60,27
234,107
496,135
88,346
